NAME : data_16_2_tsptw.tsptw.9176.tour
COMMENT : Length = 9176
COMMENT : Found by LKH [Keld Helsgaun] Wed Feb  5 14:23:24 2020
TYPE : TOUR
DIMENSION : 17
TOUR_SECTION
1
17
2
3
12
16
14
4
15
7
8
13
6
5
9
11
10
-1
EOF
